c 34_3_checker_5cl.cnf
c
c field = 34
c formula set type = 3_checker_5cl
c
p cnf 5 20
60 
62 
64 
-69 
-70 
61 
63 
65 
-68 
-71 
62 
64 
68 
-61 
-70 
63 
65 
69 
-60 
-71 
6 
36 
96 
-127 
-156 
7 
37 
97 
-126 
-157 
36 
96 
126 
-7 
-156 
37 
97 
127 
-6 
-157 
2 
34 
98 
-131 
-162 
3 
35 
99 
-130 
-163 
34 
98 
130 
-3 
-162 
35 
99 
131 
-2 
-163 
10 
38 
94 
-123 
-150 
11 
39 
95 
-122 
-151 
38 
94 
122 
-11 
-150 
39 
95 
123 
-10 
-151 
38 
94 
122 
-151 
-10 
39 
95 
123 
-150 
-11 
94 
122 
150 
-39 
-10 
95 
123 
151 
-38 
-11 
